Route #1: 63 23 56 41 43 33 6
Route #2: 62 22 64 42 1 73 75
Route #3: 68 2 28 61 21 74 30
Route #4: 48 47 36 5 29 45 4
Route #5: 37 20 70 60 71 69
Route #6: 27 15 57 13 54 52 34 67
Route #7: 46 8 19 59 14 35 7
Route #8: 53 11 66 65 38
Route #9: 26 58 10 31 39 72 12
Route #10: 9 25 55 18 50 40
Route #11: 17 32 44 3 24 49 16 51
Cost 903
